PROBLEM NAME: eil51_n11
KNAPSACK DATA TYPE: multiple strongly correlated
DIMENSION: 11
NUMBER OF ITEMS: 100
CAPACITY OF KNAPSACK: 27646
MIN SPEED: 0.1
MAX SPEED: 1
RENTING RATIO: 73.01
EDGE_WEIGHT_TYPE: CEIL_2D
NODE_COORD_SECTION	(INDEX, X, Y):
1	37	52
2	31	62
3	31	32
4	52	41
5	13	13
6	62	42
7	42	57
8	37	69
9	32	22
10	56	37
11	30	40
ITEMS SECTION	(INDEX, PROFIT, WEIGHT, ASSIGNED NODE NUMBER):
1	1179	979	2
2	1165	965	2
3	1141	941	2
4	1139	939	2
5	1128	928	2
6	1121	921	2
7	1115	915	2
8	1104	904	2
9	1092	792	2
10	1086	786	2
11	1068	868	8
12	1061	861	8
13	1050	850	8
14	1048	848	8
15	1039	839	8
16	1029	829	8
17	1027	827	8
18	1014	814	8
19	1014	714	8
20	1013	813	8
21	990	790	7
22	989	789	7
23	988	788	7
24	987	787	7
25	982	782	7
26	973	773	7
27	953	753	7
28	952	752	7
29	948	748	7
30	935	735	7
31	910	710	6
32	882	682	6
33	856	656	6
34	852	652	6
35	847	647	6
36	823	623	6
37	816	516	6
38	805	605	6
39	785	585	6
40	775	575	6
41	768	568	10
42	765	565	10
43	760	560	10
44	759	559	10
45	756	556	10
46	745	545	10
47	744	544	10
48	742	542	10
49	737	537	10
50	736	536	10
51	726	526	4
52	709	509	4
53	699	499	4
54	688	488	4
55	677	477	4
56	672	472	4
57	663	463	4
58	627	427	4
59	625	425	4
60	600	300	4
61	593	393	9
62	586	386	9
63	576	376	9
64	574	374	9
65	574	374	9
66	573	373	9
67	564	264	9
68	564	364	9
69	563	363	9
70	563	363	9
71	558	358	5
72	555	355	5
73	553	353	5
74	534	234	5
75	520	320	5
76	514	314	5
77	513	313	5
78	492	292	5
79	480	180	5
80	456	156	5
81	449	249	3
82	445	245	3
83	442	242	3
84	429	229	3
85	425	225	3
86	417	217	3
87	407	207	3
88	405	205	3
89	355	155	3
90	312	112	3
91	311	111	11
92	311	111	11
93	306	106	11
94	300	100	11
95	283	83	11
96	270	70	11
97	250	50	11
98	249	49	11
99	226	26	11
100	210	10	11
